p cnf 336 1265
-1 223 0
-2 224 0
-223 224 0
-223 -2 0
-3 225 0
-224 225 0
-224 -3 0
-4 226 0
-225 226 0
-225 -4 0
-5 227 0
-226 227 0
-226 -5 0
-227 -6 0
-1 37 0
-1 7 0
-2 38 0
-2 8 0
-3 39 0
-3 9 0
-4 40 0
-4 10 0
-5 41 0
-5 11 0
-6 42 0
-6 12 0
-7 228 0
-8 229 0
-228 229 0
-228 -8 0
-9 230 0
-229 230 0
-229 -9 0
-10 231 0
-230 231 0
-230 -10 0
-11 232 0
-231 232 0
-231 -11 0
-232 -12 0
-7 1 13 0
-7 1 43 0
-7 13 43 0
-8 2 14 0
-8 2 44 0
-8 14 44 0
-9 3 15 0
-9 3 45 0
-9 15 45 0
-10 4 16 0
-10 4 46 0
-10 16 46 0
-11 5 17 0
-11 5 47 0
-11 17 47 0
-12 6 18 0
-12 6 48 0
-12 18 48 0
-7 -1 -13 -43 0
-8 -2 -14 -44 0
-9 -3 -15 -45 0
-10 -4 -16 -46 0
-11 -5 -17 -47 0
-12 -6 -18 -48 0
-13 233 0
-14 234 0
-233 234 0
-233 -14 0
-15 235 0
-234 235 0
-234 -15 0
-16 236 0
-235 236 0
-235 -16 0
-17 237 0
-236 237 0
-236 -17 0
-237 -18 0
-13 7 19 0
-13 7 49 0
-13 19 49 0
-14 8 20 0
-14 8 50 0
-14 20 50 0
-15 9 21 0
-15 9 51 0
-15 21 51 0
-16 10 22 0
-16 10 52 0
-16 22 52 0
-17 11 23 0
-17 11 53 0
-17 23 53 0
-18 12 24 0
-18 12 54 0
-18 24 54 0
-13 -7 -19 -49 0
-14 -8 -20 -50 0
-15 -9 -21 -51 0
-16 -10 -22 -52 0
-17 -11 -23 -53 0
-18 -12 -24 -54 0
-19 238 0
-20 239 0
-238 239 0
-238 -20 0
-21 240 0
-239 240 0
-239 -21 0
-22 241 0
-240 241 0
-240 -22 0
-23 242 0
-241 242 0
-241 -23 0
-242 -24 0
-19 13 25 0
-19 13 55 0
-19 25 55 0
-20 14 26 0
-20 14 56 0
-20 26 56 0
-21 15 27 0
-21 15 57 0
-21 27 57 0
-22 16 28 0
-22 16 58 0
-22 28 58 0
-23 17 29 0
-23 17 59 0
-23 29 59 0
-24 18 30 0
-24 18 60 0
-24 30 60 0
-19 -13 -25 -55 0
-20 -14 -26 -56 0
-21 -15 -27 -57 0
-22 -16 -28 -58 0
-23 -17 -29 -59 0
-24 -18 -30 -60 0
-25 243 0
-26 244 0
-243 244 0
-243 -26 0
-27 245 0
-244 245 0
-244 -27 0
-28 246 0
-245 246 0
-245 -28 0
-29 247 0
-246 247 0
-246 -29 0
-247 -30 0
-25 19 31 0
-25 19 61 0
-25 31 61 0
-26 20 32 0
-26 20 62 0
-26 32 62 0
-27 21 33 0
-27 21 63 0
-27 33 63 0
-28 22 34 0
-28 22 64 0
-28 34 64 0
-29 23 35 0
-29 23 65 0
-29 35 65 0
-30 24 36 0
-30 24 66 0
-30 36 66 0
-25 -19 -31 -61 0
-26 -20 -32 -62 0
-27 -21 -33 -63 0
-28 -22 -34 -64 0
-29 -23 -35 -65 0
-30 -24 -36 -66 0
-32 0
-33 0
-34 0
-35 0
-36 0
31 0
67 25 0
-67 -25 0
-38 0
-39 0
-40 0
-41 0
-42 0
37 0
73 43 1 0
-73 -43 0
-73 -1 0
-43 -1 0
-43 258 0
-44 259 0
-258 259 0
-258 -44 0
-45 260 0
-259 260 0
-259 -45 0
-46 261 0
-260 261 0
-260 -46 0
-47 262 0
-261 262 0
-261 -47 0
-262 -48 0
-43 79 49 7 0
-43 79 49 37 0
-43 79 7 37 0
-43 49 7 37 0
-44 80 50 8 0
-44 80 50 38 0
-44 80 8 38 0
-44 50 8 38 0
-45 81 51 9 0
-45 81 51 39 0
-45 81 9 39 0
-45 51 9 39 0
-46 82 52 10 0
-46 82 52 40 0
-46 82 10 40 0
-46 52 10 40 0
-47 83 53 11 0
-47 83 53 41 0
-47 83 11 41 0
-47 53 11 41 0
-48 84 54 12 0
-48 84 54 42 0
-48 84 12 42 0
-48 54 12 42 0
-43 -79 -49 -7 0
-43 -79 -49 -37 0
-43 -79 -7 -37 0
-43 -49 -7 -37 0
-44 -80 -50 -8 0
-44 -80 -50 -38 0
-44 -80 -8 -38 0
-44 -50 -8 -38 0
-45 -81 -51 -9 0
-45 -81 -51 -39 0
-45 -81 -9 -39 0
-45 -51 -9 -39 0
-46 -82 -52 -10 0
-46 -82 -52 -40 0
-46 -82 -10 -40 0
-46 -52 -10 -40 0
-47 -83 -53 -11 0
-47 -83 -53 -41 0
-47 -83 -11 -41 0
-47 -53 -11 -41 0
-48 -84 -54 -12 0
-48 -84 -54 -42 0
-48 -84 -12 -42 0
-48 -54 -12 -42 0
-49 0
-51 0
-52 0
-53 0
-54 0
50 0
86 56 14 44 0
-86 -56 0
-86 -14 0
-86 -44 0
-56 -14 0
-56 -44 0
-14 -44 0
-55 268 0
-56 269 0
-268 269 0
-268 -56 0
-57 270 0
-269 270 0
-269 -57 0
-58 271 0
-270 271 0
-270 -58 0
-59 272 0
-271 272 0
-271 -59 0
-272 -60 0
-55 91 61 19 0
-55 91 61 49 0
-55 91 19 49 0
-55 61 19 49 0
-56 92 62 20 0
-56 92 62 50 0
-56 92 20 50 0
-56 62 20 50 0
-57 93 63 21 0
-57 93 63 51 0
-57 93 21 51 0
-57 63 21 51 0
-58 94 64 22 0
-58 94 64 52 0
-58 94 22 52 0
-58 64 22 52 0
-59 95 65 23 0
-59 95 65 53 0
-59 95 23 53 0
-59 65 23 53 0
-60 96 66 24 0
-60 96 66 54 0
-60 96 24 54 0
-60 66 24 54 0
-55 -91 -61 -19 0
-55 -91 -61 -49 0
-55 -91 -19 -49 0
-55 -61 -19 -49 0
-56 -92 -62 -20 0
-56 -92 -62 -50 0
-56 -92 -20 -50 0
-56 -62 -20 -50 0
-57 -93 -63 -21 0
-57 -93 -63 -51 0
-57 -93 -21 -51 0
-57 -63 -21 -51 0
-58 -94 -64 -22 0
-58 -94 -64 -52 0
-58 -94 -22 -52 0
-58 -64 -22 -52 0
-59 -95 -65 -23 0
-59 -95 -65 -53 0
-59 -95 -23 -53 0
-59 -65 -23 -53 0
-60 -96 -66 -24 0
-60 -96 -66 -54 0
-60 -96 -24 -54 0
-60 -66 -24 -54 0
-61 0
-62 0
-64 0
-65 0
-66 0
63 0
99 69 27 57 0
-99 -69 0
-99 -27 0
-99 -57 0
-69 -27 0
-69 -57 0
-27 -57 0
-67 0
-68 0
-69 0
-71 0
-72 0
70 0
106 64 34 0
-106 -64 0
-106 -34 0
-64 -34 0
-73 0
-75 0
-76 0
-77 0
-78 0
74 0
110 80 38 0
-110 -80 0
-110 -38 0
-80 -38 0
-79 288 0
-80 289 0
-288 289 0
-288 -80 0
-81 290 0
-289 290 0
-289 -81 0
-82 291 0
-290 291 0
-290 -82 0
-83 292 0
-291 292 0
-291 -83 0
-292 -84 0
-79 115 85 43 0
-79 115 85 73 0
-79 115 43 73 0
-79 85 43 73 0
-80 116 86 44 0
-80 116 86 74 0
-80 116 44 74 0
-80 86 44 74 0
-81 117 87 45 0
-81 117 87 75 0
-81 117 45 75 0
-81 87 45 75 0
-82 118 88 46 0
-82 118 88 76 0
-82 118 46 76 0
-82 88 46 76 0
-83 119 89 47 0
-83 119 89 77 0
-83 119 47 77 0
-83 89 47 77 0
-84 120 90 48 0
-84 120 90 78 0
-84 120 48 78 0
-84 90 48 78 0
-79 -115 -85 -43 0
-79 -115 -85 -73 0
-79 -115 -43 -73 0
-79 -85 -43 -73 0
-80 -116 -86 -44 0
-80 -116 -86 -74 0
-80 -116 -44 -74 0
-80 -86 -44 -74 0
-81 -117 -87 -45 0
-81 -117 -87 -75 0
-81 -117 -45 -75 0
-81 -87 -45 -75 0
-82 -118 -88 -46 0
-82 -118 -88 -76 0
-82 -118 -46 -76 0
-82 -88 -46 -76 0
-83 -119 -89 -47 0
-83 -119 -89 -77 0
-83 -119 -47 -77 0
-83 -89 -47 -77 0
-84 -120 -90 -48 0
-84 -120 -90 -78 0
-84 -120 -48 -78 0
-84 -90 -48 -78 0
-85 0
-86 0
-87 0
-89 0
-90 0
88 0
124 94 52 82 0
-124 -94 0
-124 -52 0
-124 -82 0
-94 -52 0
-94 -82 0
-52 -82 0
-91 0
-92 0
-94 0
-95 0
-96 0
93 0
129 99 57 87 0
-129 -99 0
-129 -57 0
-129 -87 0
-99 -57 0
-99 -87 0
-57 -87 0
-97 303 0
-98 304 0
-303 304 0
-303 -98 0
-99 305 0
-304 305 0
-304 -99 0
-100 306 0
-305 306 0
-305 -100 0
-101 307 0
-306 307 0
-306 -101 0
-307 -102 0
-97 133 103 61 0
-97 133 103 91 0
-97 133 61 91 0
-97 103 61 91 0
-98 134 104 62 0
-98 134 104 92 0
-98 134 62 92 0
-98 104 62 92 0
-99 135 105 63 0
-99 135 105 93 0
-99 135 63 93 0
-99 105 63 93 0
-100 136 106 64 0
-100 136 106 94 0
-100 136 64 94 0
-100 106 64 94 0
-101 137 107 65 0
-101 137 107 95 0
-101 137 65 95 0
-101 107 65 95 0
-102 138 108 66 0
-102 138 108 96 0
-102 138 66 96 0
-102 108 66 96 0
-97 -133 -103 -61 0
-97 -133 -103 -91 0
-97 -133 -61 -91 0
-97 -103 -61 -91 0
-98 -134 -104 -62 0
-98 -134 -104 -92 0
-98 -134 -62 -92 0
-98 -104 -62 -92 0
-99 -135 -105 -63 0
-99 -135 -105 -93 0
-99 -135 -63 -93 0
-99 -105 -63 -93 0
-100 -136 -106 -64 0
-100 -136 -106 -94 0
-100 -136 -64 -94 0
-100 -106 -64 -94 0
-101 -137 -107 -65 0
-101 -137 -107 -95 0
-101 -137 -65 -95 0
-101 -107 -65 -95 0
-102 -138 -108 -66 0
-102 -138 -108 -96 0
-102 -138 -66 -96 0
-102 -108 -66 -96 0
-103 308 0
-104 309 0
-308 309 0
-308 -104 0
-105 310 0
-309 310 0
-309 -105 0
-106 311 0
-310 311 0
-310 -106 0
-107 312 0
-311 312 0
-311 -107 0
-312 -108 0
-103 139 97 0
-103 139 67 0
-103 97 67 0
-104 140 98 0
-104 140 68 0
-104 98 68 0
-105 141 99 0
-105 141 69 0
-105 99 69 0
-106 142 100 0
-106 142 70 0
-106 100 70 0
-107 143 101 0
-107 143 71 0
-107 101 71 0
-108 144 102 0
-108 144 72 0
-108 102 72 0
-103 -139 -97 -67 0
-104 -140 -98 -68 0
-105 -141 -99 -69 0
-106 -142 -100 -70 0
-107 -143 -101 -71 0
-108 -144 -102 -72 0
-109 0
-110 0
-111 0
-112 0
-114 0
113 0
149 119 77 0
-149 -119 0
-149 -77 0
-119 -77 0
-115 0
-116 0
-117 0
-118 0
-119 0
120 0
156 126 84 114 0
-156 -126 0
-156 -84 0
-156 -114 0
-126 -84 0
-126 -114 0
-84 -114 0
-121 323 0
-122 324 0
-323 324 0
-323 -122 0
-123 325 0
-324 325 0
-324 -123 0
-124 326 0
-325 326 0
-325 -124 0
-125 327 0
-326 327 0
-326 -125 0
-327 -126 0
-121 157 127 85 0
-121 157 127 115 0
-121 157 85 115 0
-121 127 85 115 0
-122 158 128 86 0
-122 158 128 116 0
-122 158 86 116 0
-122 128 86 116 0
-123 159 129 87 0
-123 159 129 117 0
-123 159 87 117 0
-123 129 87 117 0
-124 160 130 88 0
-124 160 130 118 0
-124 160 88 118 0
-124 130 88 118 0
-125 161 131 89 0
-125 161 131 119 0
-125 161 89 119 0
-125 131 89 119 0
-126 162 132 90 0
-126 162 132 120 0
-126 162 90 120 0
-126 132 90 120 0
-121 -157 -127 -85 0
-121 -157 -127 -115 0
-121 -157 -85 -115 0
-121 -127 -85 -115 0
-122 -158 -128 -86 0
-122 -158 -128 -116 0
-122 -158 -86 -116 0
-122 -128 -86 -116 0
-123 -159 -129 -87 0
-123 -159 -129 -117 0
-123 -159 -87 -117 0
-123 -129 -87 -117 0
-124 -160 -130 -88 0
-124 -160 -130 -118 0
-124 -160 -88 -118 0
-124 -130 -88 -118 0
-125 -161 -131 -89 0
-125 -161 -131 -119 0
-125 -161 -89 -119 0
-125 -131 -89 -119 0
-126 -162 -132 -90 0
-126 -162 -132 -120 0
-126 -162 -90 -120 0
-126 -132 -90 -120 0
-127 328 0
-128 329 0
-328 329 0
-328 -128 0
-129 330 0
-329 330 0
-329 -129 0
-130 331 0
-330 331 0
-330 -130 0
-131 332 0
-331 332 0
-331 -131 0
-332 -132 0
-127 163 133 91 0
-127 163 133 121 0
-127 163 91 121 0
-127 133 91 121 0
-128 164 134 92 0
-128 164 134 122 0
-128 164 92 122 0
-128 134 92 122 0
-129 165 135 93 0
-129 165 135 123 0
-129 165 93 123 0
-129 135 93 123 0
-130 166 136 94 0
-130 166 136 124 0
-130 166 94 124 0
-130 136 94 124 0
-131 167 137 95 0
-131 167 137 125 0
-131 167 95 125 0
-131 137 95 125 0
-132 168 138 96 0
-132 168 138 126 0
-132 168 96 126 0
-132 138 96 126 0
-127 -163 -133 -91 0
-127 -163 -133 -121 0
-127 -163 -91 -121 0
-127 -133 -91 -121 0
-128 -164 -134 -92 0
-128 -164 -134 -122 0
-128 -164 -92 -122 0
-128 -134 -92 -122 0
-129 -165 -135 -93 0
-129 -165 -135 -123 0
-129 -165 -93 -123 0
-129 -135 -93 -123 0
-130 -166 -136 -94 0
-130 -166 -136 -124 0
-130 -166 -94 -124 0
-130 -136 -94 -124 0
-131 -167 -137 -95 0
-131 -167 -137 -125 0
-131 -167 -95 -125 0
-131 -137 -95 -125 0
-132 -168 -138 -96 0
-132 -168 -138 -126 0
-132 -168 -96 -126 0
-132 -138 -96 -126 0
-133 333 0
-134 334 0
-333 334 0
-333 -134 0
-135 335 0
-334 335 0
-334 -135 0
-136 336 0
-335 336 0
-335 -136 0
-137 337 0
-336 337 0
-336 -137 0
-337 -138 0
-133 169 139 97 0
-133 169 139 127 0
-133 169 97 127 0
-133 139 97 127 0
-134 170 140 98 0
-134 170 140 128 0
-134 170 98 128 0
-134 140 98 128 0
-135 171 141 99 0
-135 171 141 129 0
-135 171 99 129 0
-135 141 99 129 0
-136 172 142 100 0
-136 172 142 130 0
-136 172 100 130 0
-136 142 100 130 0
-137 173 143 101 0
-137 173 143 131 0
-137 173 101 131 0
-137 143 101 131 0
-138 174 144 102 0
-138 174 144 132 0
-138 174 102 132 0
-138 144 102 132 0
-133 -169 -139 -97 0
-133 -169 -139 -127 0
-133 -169 -97 -127 0
-133 -139 -97 -127 0
-134 -170 -140 -98 0
-134 -170 -140 -128 0
-134 -170 -98 -128 0
-134 -140 -98 -128 0
-135 -171 -141 -99 0
-135 -171 -141 -129 0
-135 -171 -99 -129 0
-135 -141 -99 -129 0
-136 -172 -142 -100 0
-136 -172 -142 -130 0
-136 -172 -100 -130 0
-136 -142 -100 -130 0
-137 -173 -143 -101 0
-137 -173 -143 -131 0
-137 -173 -101 -131 0
-137 -143 -101 -131 0
-138 -174 -144 -102 0
-138 -174 -144 -132 0
-138 -174 -102 -132 0
-138 -144 -102 -132 0
-139 0
-140 0
-141 0
-142 0
-144 0
143 0
179 137 107 0
-179 -137 0
-179 -107 0
-137 -107 0
-145 343 0
-146 344 0
-343 344 0
-343 -146 0
-147 345 0
-344 345 0
-344 -147 0
-148 346 0
-345 346 0
-345 -148 0
-149 347 0
-346 347 0
-346 -149 0
-347 -150 0
-145 181 151 0
-145 181 109 0
-145 151 109 0
-146 182 152 0
-146 182 110 0
-146 152 110 0
-147 183 153 0
-147 183 111 0
-147 153 111 0
-148 184 154 0
-148 184 112 0
-148 154 112 0
-149 185 155 0
-149 185 113 0
-149 155 113 0
-150 186 156 0
-150 186 114 0
-150 156 114 0
-145 -181 -151 -109 0
-146 -182 -152 -110 0
-147 -183 -153 -111 0
-148 -184 -154 -112 0
-149 -185 -155 -113 0
-150 -186 -156 -114 0
-151 348 0
-152 349 0
-348 349 0
-348 -152 0
-153 350 0
-349 350 0
-349 -153 0
-154 351 0
-350 351 0
-350 -154 0
-155 352 0
-351 352 0
-351 -155 0
-352 -156 0
-151 187 157 115 0
-151 187 157 145 0
-151 187 115 145 0
-151 157 115 145 0
-152 188 158 116 0
-152 188 158 146 0
-152 188 116 146 0
-152 158 116 146 0
-153 189 159 117 0
-153 189 159 147 0
-153 189 117 147 0
-153 159 117 147 0
-154 190 160 118 0
-154 190 160 148 0
-154 190 118 148 0
-154 160 118 148 0
-155 191 161 119 0
-155 191 161 149 0
-155 191 119 149 0
-155 161 119 149 0
-156 192 162 120 0
-156 192 162 150 0
-156 192 120 150 0
-156 162 120 150 0
-151 -187 -157 -115 0
-151 -187 -157 -145 0
-151 -187 -115 -145 0
-151 -157 -115 -145 0
-152 -188 -158 -116 0
-152 -188 -158 -146 0
-152 -188 -116 -146 0
-152 -158 -116 -146 0
-153 -189 -159 -117 0
-153 -189 -159 -147 0
-153 -189 -117 -147 0
-153 -159 -117 -147 0
-154 -190 -160 -118 0
-154 -190 -160 -148 0
-154 -190 -118 -148 0
-154 -160 -118 -148 0
-155 -191 -161 -119 0
-155 -191 -161 -149 0
-155 -191 -119 -149 0
-155 -161 -119 -149 0
-156 -192 -162 -120 0
-156 -192 -162 -150 0
-156 -192 -120 -150 0
-156 -162 -120 -150 0
-157 353 0
-158 354 0
-353 354 0
-353 -158 0
-159 355 0
-354 355 0
-354 -159 0
-160 356 0
-355 356 0
-355 -160 0
-161 357 0
-356 357 0
-356 -161 0
-357 -162 0
-157 193 163 121 0
-157 193 163 151 0
-157 193 121 151 0
-157 163 121 151 0
-158 194 164 122 0
-158 194 164 152 0
-158 194 122 152 0
-158 164 122 152 0
-159 195 165 123 0
-159 195 165 153 0
-159 195 123 153 0
-159 165 123 153 0
-160 196 166 124 0
-160 196 166 154 0
-160 196 124 154 0
-160 166 124 154 0
-161 197 167 125 0
-161 197 167 155 0
-161 197 125 155 0
-161 167 125 155 0
-162 198 168 126 0
-162 198 168 156 0
-162 198 126 156 0
-162 168 126 156 0
-157 -193 -163 -121 0
-157 -193 -163 -151 0
-157 -193 -121 -151 0
-157 -163 -121 -151 0
-158 -194 -164 -122 0
-158 -194 -164 -152 0
-158 -194 -122 -152 0
-158 -164 -122 -152 0
-159 -195 -165 -123 0
-159 -195 -165 -153 0
-159 -195 -123 -153 0
-159 -165 -123 -153 0
-160 -196 -166 -124 0
-160 -196 -166 -154 0
-160 -196 -124 -154 0
-160 -166 -124 -154 0
-161 -197 -167 -125 0
-161 -197 -167 -155 0
-161 -197 -125 -155 0
-161 -167 -125 -155 0
-162 -198 -168 -126 0
-162 -198 -168 -156 0
-162 -198 -126 -156 0
-162 -168 -126 -156 0
-163 358 0
-164 359 0
-358 359 0
-358 -164 0
-165 360 0
-359 360 0
-359 -165 0
-166 361 0
-360 361 0
-360 -166 0
-167 362 0
-361 362 0
-361 -167 0
-362 -168 0
-163 199 169 127 0
-163 199 169 157 0
-163 199 127 157 0
-163 169 127 157 0
-164 200 170 128 0
-164 200 170 158 0
-164 200 128 158 0
-164 170 128 158 0
-165 201 171 129 0
-165 201 171 159 0
-165 201 129 159 0
-165 171 129 159 0
-166 202 172 130 0
-166 202 172 160 0
-166 202 130 160 0
-166 172 130 160 0
-167 203 173 131 0
-167 203 173 161 0
-167 203 131 161 0
-167 173 131 161 0
-168 204 174 132 0
-168 204 174 162 0
-168 204 132 162 0
-168 174 132 162 0
-163 -199 -169 -127 0
-163 -199 -169 -157 0
-163 -199 -127 -157 0
-163 -169 -127 -157 0
-164 -200 -170 -128 0
-164 -200 -170 -158 0
-164 -200 -128 -158 0
-164 -170 -128 -158 0
-165 -201 -171 -129 0
-165 -201 -171 -159 0
-165 -201 -129 -159 0
-165 -171 -129 -159 0
-166 -202 -172 -130 0
-166 -202 -172 -160 0
-166 -202 -130 -160 0
-166 -172 -130 -160 0
-167 -203 -173 -131 0
-167 -203 -173 -161 0
-167 -203 -131 -161 0
-167 -173 -131 -161 0
-168 -204 -174 -132 0
-168 -204 -174 -162 0
-168 -204 -132 -162 0
-168 -174 -132 -162 0
-169 0
-170 0
-171 0
-172 0
-173 0
174 0
210 180 138 168 0
-210 -180 0
-210 -138 0
-210 -168 0
-180 -138 0
-180 -168 0
-138 -168 0
-175 368 0
-176 369 0
-368 369 0
-368 -176 0
-177 370 0
-369 370 0
-369 -177 0
-178 371 0
-370 371 0
-370 -178 0
-179 372 0
-371 372 0
-371 -179 0
-372 -180 0
-175 211 169 0
-175 211 139 0
-175 169 139 0
-176 212 170 0
-176 212 140 0
-176 170 140 0
-177 213 171 0
-177 213 141 0
-177 171 141 0
-178 214 172 0
-178 214 142 0
-178 172 142 0
-179 215 173 0
-179 215 143 0
-179 173 143 0
-180 216 174 0
-180 216 144 0
-180 174 144 0
-175 -211 -169 -139 0
-176 -212 -170 -140 0
-177 -213 -171 -141 0
-178 -214 -172 -142 0
-179 -215 -173 -143 0
-180 -216 -174 -144 0
-181 373 0
-182 374 0
-373 374 0
-373 -182 0
-183 375 0
-374 375 0
-374 -183 0
-184 376 0
-375 376 0
-375 -184 0
-185 377 0
-376 377 0
-376 -185 0
-377 -186 0
-181 145 0
-181 187 0
-182 146 0
-182 188 0
-183 147 0
-183 189 0
-184 148 0
-184 190 0
-185 149 0
-185 191 0
-186 150 0
-186 192 0
-187 378 0
-188 379 0
-378 379 0
-378 -188 0
-189 380 0
-379 380 0
-379 -189 0
-190 381 0
-380 381 0
-380 -190 0
-191 382 0
-381 382 0
-381 -191 0
-382 -192 0
-187 151 193 0
-187 151 181 0
-187 193 181 0
-188 152 194 0
-188 152 182 0
-188 194 182 0
-189 153 195 0
-189 153 183 0
-189 195 183 0
-190 154 196 0
-190 154 184 0
-190 196 184 0
-191 155 197 0
-191 155 185 0
-191 197 185 0
-192 156 198 0
-192 156 186 0
-192 198 186 0
-187 -151 -193 -181 0
-188 -152 -194 -182 0
-189 -153 -195 -183 0
-190 -154 -196 -184 0
-191 -155 -197 -185 0
-192 -156 -198 -186 0
-193 383 0
-194 384 0
-383 384 0
-383 -194 0
-195 385 0
-384 385 0
-384 -195 0
-196 386 0
-385 386 0
-385 -196 0
-197 387 0
-386 387 0
-386 -197 0
-387 -198 0
-193 157 199 0
-193 157 187 0
-193 199 187 0
-194 158 200 0
-194 158 188 0
-194 200 188 0
-195 159 201 0
-195 159 189 0
-195 201 189 0
-196 160 202 0
-196 160 190 0
-196 202 190 0
-197 161 203 0
-197 161 191 0
-197 203 191 0
-198 162 204 0
-198 162 192 0
-198 204 192 0
-193 -157 -199 -187 0
-194 -158 -200 -188 0
-195 -159 -201 -189 0
-196 -160 -202 -190 0
-197 -161 -203 -191 0
-198 -162 -204 -192 0
-199 388 0
-200 389 0
-388 389 0
-388 -200 0
-201 390 0
-389 390 0
-389 -201 0
-202 391 0
-390 391 0
-390 -202 0
-203 392 0
-391 392 0
-391 -203 0
-392 -204 0
-199 163 205 0
-199 163 193 0
-199 205 193 0
-200 164 206 0
-200 164 194 0
-200 206 194 0
-201 165 207 0
-201 165 195 0
-201 207 195 0
-202 166 208 0
-202 166 196 0
-202 208 196 0
-203 167 209 0
-203 167 197 0
-203 209 197 0
-204 168 210 0
-204 168 198 0
-204 210 198 0
-199 -163 -205 -193 0
-200 -164 -206 -194 0
-201 -165 -207 -195 0
-202 -166 -208 -196 0
-203 -167 -209 -197 0
-204 -168 -210 -198 0
-205 393 0
-206 394 0
-393 394 0
-393 -206 0
-207 395 0
-394 395 0
-394 -207 0
-208 396 0
-395 396 0
-395 -208 0
-209 397 0
-396 397 0
-396 -209 0
-397 -210 0
-205 169 211 0
-205 169 199 0
-205 211 199 0
-206 170 212 0
-206 170 200 0
-206 212 200 0
-207 171 213 0
-207 171 201 0
-207 213 201 0
-208 172 214 0
-208 172 202 0
-208 214 202 0
-209 173 215 0
-209 173 203 0
-209 215 203 0
-210 174 216 0
-210 174 204 0
-210 216 204 0
-205 -169 -211 -199 0
-206 -170 -212 -200 0
-207 -171 -213 -201 0
-208 -172 -214 -202 0
-209 -173 -215 -203 0
-210 -174 -216 -204 0
-211 398 0
-212 399 0
-398 399 0
-398 -212 0
-213 400 0
-399 400 0
-399 -213 0
-214 401 0
-400 401 0
-400 -214 0
-215 402 0
-401 402 0
-401 -215 0
-402 -216 0
-211 175 0
-211 205 0
-212 176 0
-212 206 0
-213 177 0
-213 207 0
-214 178 0
-214 208 0
-215 179 0
-215 209 0
-216 180 0
-216 210 0
7 43 79 151 187 0
13 121 157 193 0
19 55 127 163 199 0
25 97 133 205 0
8 44 80 152 188 0
22 58 130 166 202 0
28 100 136 208 0
11 47 83 155 191 0
17 125 161 197 0
23 59 131 167 203 0
29 101 137 209 0
18 126 162 198 0
24 60 132 168 204 0